% demand
num_movements = 45;
loading_factor = [1100, 1250, 1250, 900, 850, 1450, 1350, 1050, 2000, 1800, 1600, 800, 1300, 1550, 1800, 1200, 850, 1150, 1300, 850, 850, 1100, 1850, 1050, 850, 1250, 1400, 950, 1900, 1750, 1150, 950, 2000, 1750, 1550, 1700, 1400, 1400, 1000, 1250, 1150, 1850, 1950, 1150, 1100];
pickup_time = [0, 0, 0, 0, 0, 1, 2, 2, 2, 2, 2, 3, 3, 3, 4, 4, 4, 4, 4, 4, 4, 5, 5, 5, 6, 6, 6, 7, 7, 7, 7, 7, 7, 10, 10, 10, 10, 10, 10, 10, 11, 11, 11, 11, 11];
delivery_time = [1, 1, 1, 9, 3, 3, 3, 4, 5, 4, 4, 4, 4, 4, 5, 5, 5, 6, 7, 5, 7, 7, 7, 7, 7, 9, 7, 9, 9, 9, 9, 9, 9, 11, 11, 11, 12, 12, 12, 11, 12, 12, 12, 12, 12];

% transporter definition
total_capacity = 11000;
num_decks = 4;
capacity = [3000, 3000, 1000, 4000];

% ways out of decks
num_ways_out = 2;
paths_out = array3d(decks, ways_out, decks, [
% ways out of deck d1
2, 4, 0, 0, 3, 4, 0, 0, 

% ways out of deck d2
4, 0, 0, 0, 0, 0, 0, 0,	

% ways out of deck d3
4, 0, 0, 0, 0, 0, 0, 0,	

% ways out of deck d4
0, 0, 0, 0,	0, 0, 0, 0,	

]);

